NAME : traveling-santa-2018-prime-paths.31898.tour
COMMENT : Length = 31898
COMMENT : Found by LKH [Keld Helsgaun] Sun Jun 12 19:59:37 2022
TYPE : TOUR
DIMENSION : 100
TOUR_SECTION
1
63
58
24
29
87
73
4
12
11
36
96
60
57
40
28
35
13
71
82
95
21
72
20
46
39
64
97
18
32
30
69
43
66
33
16
50
6
89
9
14
76
75
51
84
22
49
37
86
98
53
70
59
62
19
100
83
45
68
15
94
3
78
54
48
5
81
85
2
38
92
55
44
61
10
23
77
80
25
8
93
26
90
47
56
34
27
41
42
67
79
65
52
99
91
74
17
31
7
88
-1
EOF
